149875113 -1 0
h 2 3 0
h -2 4 0
707687787 -5 0
832551240 -6 0
1218280431 -7 0
1267845889 -8 0
666460790 -9 0
604894632 -10 0
h -2 1 0
422513571 -4 0
1046222751 -11 0
745406928 -12 0
1664877406 -13 0
1236335243 -14 0
930645703 -15 0
h -3 16 0
529476472 -17 0
1512286681 -18 0
257007492 -19 0
946538782 -20 0
1721149915 -21 0
810364933 -22 0
h -16 17 0
842201823 -23 0
1111780540 -24 0
1255355462 -25 0
1418556262 -26 0
